Minimize 
 obj1: x(1) 
Subject To 
 c1: y(0) + y(1) + y(2) + y(3) + y(4) + y(5) + y(6) + y(7) + y(8) + y(9) + 
     y(10) + y(11) + y(12) + y(13) + y(14) + y(15) + y(16) + y(17) + y(18) + y(19) + 
     y(20) + y(21) + y(22) + y(23) + y(24) + y(25) + y(26) + y(27) + y(28) + y(29) + 
     y(30) + y(31) + y(32) + y(33) + y(34) + y(35) + y(36) + y(37) + y(38) + y(39) + 
     y(40) + y(41) + y(42) + y(43) + y(44) + y(45) + y(46) + y(47) + y(48) + y(49) + 
     y(50) + y(51) + y(52) + y(53) + y(54) + y(55) + y(56) + y(57) + y(58) + y(59) + 
     y(60) + y(61) + y(62) + y(63) + y(64) + y(65) + y(66) + y(67) + y(68) + y(69) + 
     y(70) + y(71) + y(72) + y(73) + y(74) + y(75) + y(76) + y(77) + y(78) + y(79) + 
     y(80) + y(81) + y(82) + y(83) + y(84) + y(85) + y(86) + y(87) + y(88) + y(89) + 
     y(90) + y(91) + y(92) + y(93) + y(94) + y(95) + y(96) + y(97) + y(98) + y(99) + 
     y(100) = 1 
 c2: x(1) + x(2) - 200 y(0) >= - 200 
 c3: 0.9401 x(1) + 0.0599 x(2) - 200 y(1) >= -287.5633 
 c4: 0.038 x(1) + 0.962 x(2) - 200 y(1) >= -109.2271 
 c5: 0.8284 x(1) + 0.1716 x(2) - 200 y(2) >= -264.5594 
 c6: 0.1875 x(1) + 0.8125 x(2) - 200 y(2) >= -139.9798 
 c7: 0.9059 x(1) + 0.0941 x(2) - 200 y(3) >= -277.4043 
 c8: 0.0273 x(1) + 0.9727 x(2) - 200 y(3) >= -110.8457 
 c9: 0.9077 x(1) + 0.0923 x(2) - 200 y(4) >= -275.2484 
 c10: 0.0525 x(1) + 0.9475 x(2) - 200 y(4) >= -117.4462 
 c11: 0.772 x(1) + 0.228 x(2) - 200 y(5) >= -250.0651 
 c12: 0.1364 x(1) + 0.8636 x(2) - 200 y(5) >= -134.0294 
 c13: 0.8299 x(1) + 0.1701 x(2) - 200 y(6) >= -258.349 
 c14: 0.2368 x(1) + 0.7632 x(2) - 200 y(6) >= -153.4617 
 c15: 1 x(1) + 0 x(2) - 200 y(7) >= -287.7527 
 c16: 0 x(1) + 1 x(2) - 200 y(7) >= -112.786 
 c17: 0.8445 x(1) + 0.1555 x(2) - 200 y(8) >= -258.276 
 c18: 0.1754 x(1) + 0.8246 x(2) - 200 y(8) >= -145.513 
 c19: 0.9532 x(1) + 0.0468 x(2) - 200 y(9) >= -275.0321 
 c20: 0.1636 x(1) + 0.8364 x(2) - 200 y(9) >= -144.4836 
 c21: 0.7842 x(1) + 0.2158 x(2) - 200 y(10) >= -246.5324 
 c22: 0.1391 x(1) + 0.8609 x(2) - 200 y(10) >= -142.1207 
 c23: 0.9686 x(1) + 0.0314 x(2) - 200 y(11) >= -274.5924 
 c24: 0.0685 x(1) + 0.9315 x(2) - 200 y(11) >= -131.9905 
 c25: 0.7722 x(1) + 0.2278 x(2) - 200 y(12) >= -241.7474 
 c26: 0.1574 x(1) + 0.8426 x(2) - 200 y(12) >= -147.8595 
 c27: 0.7561 x(1) + 0.2439 x(2) - 200 y(13) >= -238.1134 
 c28: 0.1831 x(1) + 0.8169 x(2) - 200 y(13) >= -152.9142 
 c29: 0.8602 x(1) + 0.1398 x(2) - 200 y(14) >= -253.3827 
 c30: 0.0243 x(1) + 0.9757 x(2) - 200 y(14) >= -131.4992 
 c31: 0.9347 x(1) + 0.0653 x(2) - 200 y(15) >= -262.4751 
 c32: 0.0046 x(1) + 0.9954 x(2) - 200 y(15) >= -130.0062 
 c33: 0.8225 x(1) + 0.1775 x(2) - 200 y(16) >= -245.0861 
 c34: 0.0088 x(1) + 0.9912 x(2) - 200 y(16) >= -131.7414 
 c35: 0.9699 x(1) + 0.0301 x(2) - 200 y(17) >= -262.6728 
 c36: 0.0235 x(1) + 0.9765 x(2) - 200 y(17) >= -136.4913 
 c37: 0.8559 x(1) + 0.1441 x(2) - 200 y(18) >= -246.9949 
 c38: 0.1094 x(1) + 0.8906 x(2) - 200 y(18) >= -149.2097 
 c39: 0.822 x(1) + 0.178 x(2) - 200 y(19) >= -240.6468 
 c40: 0.1984 x(1) + 0.8016 x(2) - 200 y(19) >= -162.7263 
 c41: 0.9356 x(1) + 0.0644 x(2) - 200 y(20) >= -253.5194 
 c42: 0.0616 x(1) + 0.9384 x(2) - 200 y(20) >= -146.4033 
 c43: 0.7622 x(1) + 0.2378 x(2) - 200 y(21) >= -231.3817 
 c44: 0.0666 x(1) + 0.9334 x(2) - 200 y(21) >= -148.9748 
 c45: 0.9523 x(1) + 0.0477 x(2) - 200 y(22) >= -251.2007 
 c46: 0.1625 x(1) + 0.8375 x(2) - 200 y(22) >= -162.0963 
 c47: 0.9773 x(1) + 0.0227 x(2) - 200 y(23) >= -253.1183 
 c48: 0.0784 x(1) + 0.9216 x(2) - 200 y(23) >= -153.2216 
 c49: 0.8272 x(1) + 0.1728 x(2) - 200 y(24) >= -235.2607 
 c50: 0.2397 x(1) + 0.7603 x(2) - 200 y(24) >= -172.4611 
 c51: 0.8238 x(1) + 0.1762 x(2) - 200 y(25) >= -233.4789 
 c52: 0.0905 x(1) + 0.9095 x(2) - 200 y(25) >= -158.5478 
 c53: 0.9299 x(1) + 0.0701 x(2) - 200 y(26) >= -242.5483 
 c54: 0.0134 x(1) + 0.9866 x(2) - 200 y(26) >= -153.2088 
 c55: 0.9545 x(1) + 0.0455 x(2) - 200 y(27) >= -243.3247 
 c56: 0.0674 x(1) + 0.9326 x(2) - 200 y(27) >= -158.9394 
 c57: 0.9846 x(1) + 0.0154 x(2) - 200 y(28) >= -242.8446 
 c58: 0.1869 x(1) + 0.8131 x(2) - 200 y(28) >= -172.4058 
 c59: 0.7768 x(1) + 0.2232 x(2) - 200 y(29) >= -223.3445 
 c60: 0.1335 x(1) + 0.8665 x(2) - 200 y(29) >= -169.124 
 c61: 0.8204 x(1) + 0.1796 x(2) - 200 y(30) >= -226.4867 
 c62: 0.162 x(1) + 0.838 x(2) - 200 y(30) >= -172.5863 
 c63: 0.9567 x(1) + 0.0433 x(2) - 200 y(31) >= -235.7673 
 c64: 0.1889 x(1) + 0.8111 x(2) - 200 y(31) >= -175.8891 
 c65: 0.9404 x(1) + 0.0596 x(2) - 200 y(32) >= -231.955 
 c66: 0.0558 x(1) + 0.9442 x(2) - 200 y(32) >= -167.8802 
 c67: 0.8051 x(1) + 0.1949 x(2) - 200 y(33) >= -221.5262 
 c68: 0.0514 x(1) + 0.9486 x(2) - 200 y(33) >= -169.3943 
 c69: 0.9806 x(1) + 0.0194 x(2) - 200 y(34) >= -231.9299 
 c70: 0.011 x(1) + 0.989 x(2) - 200 y(34) >= -168.4217 
 c71: 0.7763 x(1) + 0.2237 x(2) - 200 y(35) >= -217.1172 
 c72: 0.0465 x(1) + 0.9535 x(2) - 200 y(35) >= -172.7327 
 c73: 0.9646 x(1) + 0.0354 x(2) - 200 y(36) >= -226.644 
 c74: 0.1975 x(1) + 0.8025 x(2) - 200 y(36) >= -183.03 
 c75: 0.8768 x(1) + 0.1232 x(2) - 200 y(37) >= -221.1315 
 c76: 0.0863 x(1) + 0.9137 x(2) - 200 y(37) >= -178.4004 
 c77: 0.9568 x(1) + 0.0432 x(2) - 200 y(38) >= -222.5106 
 c78: 0.1817 x(1) + 0.8183 x(2) - 200 y(38) >= -184.7103 
 c79: 0.8688 x(1) + 0.1312 x(2) - 200 y(39) >= -216.6026 
 c80: 0.2286 x(1) + 0.7714 x(2) - 200 y(39) >= -187.872 
 c81: 0.7781 x(1) + 0.2219 x(2) - 200 y(40) >= -212.0622 
 c82: 0.1366 x(1) + 0.8634 x(2) - 200 y(40) >= -185.5456 
 c83: 0.8624 x(1) + 0.1376 x(2) - 200 y(41) >= -213.1455 
 c84: 0.0982 x(1) + 0.9018 x(2) - 200 y(41) >= -185.4655 
 c85: 1 x(1) + 0 x(2) - 200 y(42) >= -216.2582 
 c86: 0 x(1) + 1 x(2) - 200 y(42) >= -183.9957 
 c87: 0.9956 x(1) + 0.0044 x(2) - 200 y(43) >= -215.0764 
 c88: 0.0402 x(1) + 0.9598 x(2) - 200 y(43) >= -186.1746 
 c89: 0.8312 x(1) + 0.1688 x(2) - 200 y(44) >= -208.2433 
 c90: 0.1009 x(1) + 0.8991 x(2) - 200 y(44) >= -190.1377 
 c91: 0.7727 x(1) + 0.2273 x(2) - 200 y(45) >= -206.6046 
 c92: 0.0704 x(1) + 0.9296 x(2) - 200 y(45) >= -191.1851 
 c93: 0.863 x(1) + 0.137 x(2) - 200 y(46) >= -207.2181 
 c94: 0.2036 x(1) + 0.7964 x(2) - 200 y(46) >= -195.4209 
 c95: 1 x(1) + 0 x(2) - 200 y(47) >= -206.8143 
 c96: 0 x(1) + 1 x(2) - 200 y(47) >= -193.3215 
 c97: 0.7723 x(1) + 0.2277 x(2) - 200 y(48) >= -202.4529 
 c98: 0.234 x(1) + 0.766 x(2) - 200 y(48) >= -197.7562 
 c99: 0.8415 x(1) + 0.1585 x(2) - 200 y(49) >= -202.2383 
 c100: 0.0083 x(1) + 0.9917 x(2) - 200 y(49) >= -197.2171 
 c101: 0.8146 x(1) + 0.1854 x(2) - 200 y(50) >= -201.0703 
 c102: 0.2107 x(1) + 0.7893 x(2) - 200 y(50) >= -199.7677 
 c103: 0.9195 x(1) + 0.0805 x(2) - 200 y(51) >= -198.9914 
 c104: 0.2175 x(1) + 0.7825 x(2) - 200 y(51) >= -201.0045 
 c105: 0.9013 x(1) + 0.0987 x(2) - 200 y(52) >= -197.1549 
 c106: 0.0618 x(1) + 0.9382 x(2) - 200 y(52) >= -203.4877 
 c107: 0.9158 x(1) + 0.0842 x(2) - 200 y(53) >= -196.2933 
 c108: 0.0157 x(1) + 0.9843 x(2) - 200 y(53) >= -205.0255 
 c109: 0.8895 x(1) + 0.1105 x(2) - 200 y(54) >= -195.201 
 c110: 0.0474 x(1) + 0.9526 x(2) - 200 y(54) >= -206.2197 
 c111: 0.9812 x(1) + 0.0188 x(2) - 200 y(55) >= -191.5922 
 c112: 0.0558 x(1) + 0.9442 x(2) - 200 y(55) >= -208.0643 
 c113: 0.9205 x(1) + 0.0795 x(2) - 200 y(56) >= -190.6064 
 c114: 0.1437 x(1) + 0.8563 x(2) - 200 y(56) >= -208.6556 
 c115: 0.8952 x(1) + 0.1048 x(2) - 200 y(57) >= -189.6741 
 c116: 0.0379 x(1) + 0.9621 x(2) - 200 y(57) >= -212.3067 
 c117: 0.8282 x(1) + 0.1718 x(2) - 200 y(58) >= -190.3496 
 c118: 0.2402 x(1) + 0.7598 x(2) - 200 y(58) >= -207.8768 
 c119: 0.9237 x(1) + 0.0763 x(2) - 200 y(59) >= -186.2292 
 c120: 0.2025 x(1) + 0.7975 x(2) - 200 y(59) >= -209.797 
 c121: 0.8251 x(1) + 0.1749 x(2) - 200 y(60) >= -187.8741 
 c122: 0.1127 x(1) + 0.8873 x(2) - 200 y(60) >= -214.5907 
 c123: 0.8619 x(1) + 0.1381 x(2) - 200 y(61) >= -184.8489 
 c124: 0.0199 x(1) + 0.9801 x(2) - 200 y(61) >= -220.9156 
 c125: 0.8973 x(1) + 0.1027 x(2) - 200 y(62) >= -181.2718 
 c126: 0.1415 x(1) + 0.8585 x(2) - 200 y(62) >= -217.1186 
 c127: 0.9832 x(1) + 0.0168 x(2) - 200 y(63) >= -175.2715 
 c128: 0.1471 x(1) + 0.8529 x(2) - 200 y(63) >= -218.0737 
 c129: 0.8587 x(1) + 0.1413 x(2) - 200 y(64) >= -179.9295 
 c130: 0.1624 x(1) + 0.8376 x(2) - 200 y(64) >= -218.8899 
 c131: 0.8364 x(1) + 0.1636 x(2) - 200 y(65) >= -181.197 
 c132: 0.0827 x(1) + 0.9173 x(2) - 200 y(65) >= -225.1139 
 c133: 1 x(1) + 0 x(2) - 200 y(66) >= -168.2928 
 c134: 0 x(1) + 1 x(2) - 200 y(66) >= -231.864 
 c135: 0.9446 x(1) + 0.0554 x(2) - 200 y(67) >= -169.7767 
 c136: 0.238 x(1) + 0.762 x(2) - 200 y(67) >= -217.816 
 c137: 0.7743 x(1) + 0.2257 x(2) - 200 y(68) >= -181.6402 
 c138: 0.2407 x(1) + 0.7593 x(2) - 200 y(68) >= -218.6864 
 c139: 0.8836 x(1) + 0.1164 x(2) - 200 y(69) >= -171.2915 
 c140: 0.0218 x(1) + 0.9782 x(2) - 200 y(69) >= -235.8483 
 c141: 0.9905 x(1) + 0.0095 x(2) - 200 y(70) >= -162.0778 
 c142: 0.0889 x(1) + 0.9111 x(2) - 200 y(70) >= -232.936 
 c143: 0.8119 x(1) + 0.1881 x(2) - 200 y(71) >= -174.2901 
 c144: 0.1933 x(1) + 0.8067 x(2) - 200 y(71) >= -225.4154 
 c145: 0.8252 x(1) + 0.1748 x(2) - 200 y(72) >= -171.5133 
 c146: 0.1446 x(1) + 0.8554 x(2) - 200 y(72) >= -231.2777 
 c147: 0.9574 x(1) + 0.0426 x(2) - 200 y(73) >= -159.6171 
 c148: 0.2248 x(1) + 0.7752 x(2) - 200 y(73) >= -225.4601 
 c149: 0.8216 x(1) + 0.1784 x(2) - 200 y(74) >= -169.2997 
 c150: 0.1083 x(1) + 0.8917 x(2) - 200 y(74) >= -237.4045 
 c151: 0.8869 x(1) + 0.1131 x(2) - 200 y(75) >= -161.8367 
 c152: 0.0865 x(1) + 0.9135 x(2) - 200 y(75) >= -241.1838 
 c153: 0.9099 x(1) + 0.0901 x(2) - 200 y(76) >= -157.8749 
 c154: 0.2353 x(1) + 0.7647 x(2) - 200 y(76) >= -227.3946 
 c155: 0.8911 x(1) + 0.1089 x(2) - 200 y(77) >= -159.1694 
 c156: 0.2324 x(1) + 0.7676 x(2) - 200 y(77) >= -229.1888 
 c157: 0.8621 x(1) + 0.1379 x(2) - 200 y(78) >= -160.1313 
 c158: 0.1163 x(1) + 0.8837 x(2) - 200 y(78) >= -242.801 
 c159: 0.9756 x(1) + 0.0244 x(2) - 200 y(79) >= -146.0503 
 c160: 0.1684 x(1) + 0.8316 x(2) - 200 y(79) >= -238.6651 
 c161: 0.9158 x(1) + 0.0842 x(2) - 200 y(80) >= -151.0476 
 c162: 0.233 x(1) + 0.767 x(2) - 200 y(80) >= -231.4797 
 c163: 0.921 x(1) + 0.079 x(2) - 200 y(81) >= -148.7588 
 c164: 0.0111 x(1) + 0.9889 x(2) - 200 y(81) >= -260.42 
 c165: 0.7608 x(1) + 0.2392 x(2) - 200 y(82) >= -166.7435 
 c166: 0.0849 x(1) + 0.9151 x(2) - 200 y(82) >= -253.1458 
 c167: 0.971 x(1) + 0.029 x(2) - 200 y(83) >= -138.6144 
 c168: 0.2008 x(1) + 0.7992 x(2) - 200 y(83) >= -239.6256 
 c169: 0.9673 x(1) + 0.0327 x(2) - 200 y(84) >= -137.59 
 c170: 0.2004 x(1) + 0.7996 x(2) - 200 y(84) >= -240.3963 
 c171: 0.8319 x(1) + 0.1681 x(2) - 200 y(85) >= -153.8437 
 c172: 0.0856 x(1) + 0.9144 x(2) - 200 y(85) >= -257.9996 
 c173: 0.9872 x(1) + 0.0128 x(2) - 200 y(86) >= -130.9701 
 c174: 0.2077 x(1) + 0.7923 x(2) - 200 y(86) >= -242.2983 
 c175: 0.8653 x(1) + 0.1347 x(2) - 200 y(87) >= -146.4198 
 c176: 0.0213 x(1) + 0.9787 x(2) - 200 y(87) >= -270.252 
 c177: 0.944 x(1) + 0.056 x(2) - 200 y(88) >= -132.8848 
 c178: 0.1096 x(1) + 0.8904 x(2) - 200 y(88) >= -259.1338 
 c179: 0.8897 x(1) + 0.1103 x(2) - 200 y(89) >= -139.3967 
 c180: 0.0377 x(1) + 0.9623 x(2) - 200 y(89) >= -271.9476 
 c181: 0.8468 x(1) + 0.1532 x(2) - 200 y(90) >= -145.0709 
 c182: 0.0843 x(1) + 0.9157 x(2) - 200 y(90) >= -266.1153 
 c183: 0.8609 x(1) + 0.1391 x(2) - 200 y(91) >= -141.7001 
 c184: 0.1112 x(1) + 0.8888 x(2) - 200 y(91) >= -263.7988 
 c185: 0.9293 x(1) + 0.0707 x(2) - 200 y(92) >= -129.2182 
 c186: 0.0808 x(1) + 0.9192 x(2) - 200 y(92) >= -270.2724 
 c187: 0.9689 x(1) + 0.0311 x(2) - 200 y(93) >= -121.1439 
 c188: 0.1409 x(1) + 0.8591 x(2) - 200 y(93) >= -260.5449 
 c189: 0.8844 x(1) + 0.1156 x(2) - 200 y(94) >= -133.1689 
 c190: 0.0197 x(1) + 0.9803 x(2) - 200 y(94) >= -283.8142 
 c191: 0.86 x(1) + 0.14 x(2) - 200 y(95) >= -136.7725 
 c192: 0.1007 x(1) + 0.8993 x(2) - 200 y(95) >= -271.7939 
 c193: 0.7979 x(1) + 0.2021 x(2) - 200 y(96) >= -146.3051 
 c194: 0.0682 x(1) + 0.9318 x(2) - 200 y(96) >= -279.2605 
 c195: 0.8822 x(1) + 0.1178 x(2) - 200 y(97) >= -128.4116 
 c196: 0.1132 x(1) + 0.8868 x(2) - 200 y(97) >= -272.6137 
 c197: 0.8485 x(1) + 0.1515 x(2) - 200 y(98) >= -133.611 
 c198: 0.1118 x(1) + 0.8882 x(2) - 200 y(98) >= -274.4067 
 c199: 0.9605 x(1) + 0.0395 x(2) - 200 y(99) >= -110.3897 
 c200: 0.0896 x(1) + 0.9104 x(2) - 200 y(99) >= -280.2686 
 c201: 0.8391 x(1) + 0.1609 x(2) - 200 y(100) >= -132.2896 
 c202: 0.0227 x(1) + 0.9773 x(2) - 200 y(100) >= -295.442 
 obj2: x(2) = 0 
Bounds 
 -100 <= x(1) <= 100 
 -100 <= x(2) <= 100 
Binaries 
 y(0)  y(1)  y(2)  y(3)  y(4)  y(5)  y(6)  y(7)  y(8)  y(9) 
 y(10)  y(11)  y(12)  y(13)  y(14)  y(15)  y(16)  y(17)  y(18)  y(19) 
 y(20)  y(21)  y(22)  y(23)  y(24)  y(25)  y(26)  y(27)  y(28)  y(29) 
 y(30)  y(31)  y(32)  y(33)  y(34)  y(35)  y(36)  y(37)  y(38)  y(39) 
 y(40)  y(41)  y(42)  y(43)  y(44)  y(45)  y(46)  y(47)  y(48)  y(49) 
 y(50)  y(51)  y(52)  y(53)  y(54)  y(55)  y(56)  y(57)  y(58)  y(59) 
 y(60)  y(61)  y(62)  y(63)  y(64)  y(65)  y(66)  y(67)  y(68)  y(69) 
 y(70)  y(71)  y(72)  y(73)  y(74)  y(75)  y(76)  y(77)  y(78)  y(79) 
 y(80)  y(81)  y(82)  y(83)  y(84)  y(85)  y(86)  y(87)  y(88)  y(89) 
 y(90)  y(91)  y(92)  y(93)  y(94)  y(95)  y(96)  y(97)  y(98)  y(99) 
 y(100) 
End